51	3

10	12	10	

0	0	0	0	3	2	4	5	
5	3	5	2	2	3	8	
5	5	5	4	2	7	13	
2	5	4	3	1	6	
4	5	2	2	1	12	
2	2	4	4	1	10	
1	4	1	4	2	9	16	
1	4	1	4	2	10	11	
5	1	5	4	2	17	19	
3	3	2	4	2	15	16	
2	3	3	2	1	14	
1	3	5	2	1	13	
2	3	2	2	1	16	
2	2	2	2	2	18	20	
1	5	5	4	1	19	
1	1	4	4	1	20	
1	3	2	3	2	22	25	
1	5	3	3	1	21	
1	2	4	6	1	21	
1	4	5	4	1	23	
2	1	6	2	1	24	
2	3	2	1	1	24	
6	1	0	4	1	26	
6	0	1	3	1	27	
2	2	2	1	1	26	
1	2	2	2	3	27	29	30	
5	3	5	2	2	28	33	
5	5	5	4	2	32	38	
2	5	4	3	1	31	
4	5	2	2	1	37	
2	2	4	4	1	35	
1	4	1	4	2	34	41	
1	4	1	4	2	35	36	
5	1	5	4	2	42	44	
3	3	2	4	2	40	41	
2	3	3	2	1	39	
1	3	5	2	1	38	
2	3	2	2	1	41	
2	2	2	2	2	43	45	
1	5	5	4	1	44	
1	1	4	4	1	45	
1	3	2	3	2	47	50	
1	5	3	3	1	46	
1	2	4	6	1	46	
1	4	5	4	1	48	
2	1	6	2	1	49	
2	3	2	1	1	49	
6	1	0	4	1	51	
6	0	1	3	1	51	
2	2	2	1	1	51	
0	0	0	0	0	
